[runlim] version:		1.10
[runlim] time limit:		311040000 seconds
[runlim] real time limit:	600 seconds
[runlim] space limit:		14000 MB
[runlim] argv[0]:		python3
[runlim] argv[1]:		cp.py
[runlim] argv[2]:		TUD200.2
[runlim] start:			Sun Jan 25 08:10:34 2026
[runlim] main pid:		20794
Building CP model...
Solving CP Optimizer...
 ! --------------------------------------------------- CP Optimizer 22.1.1.0 --
 ! Minimization problem - 3536 variables, 146250 constraints
 ! Presolve      : 6176 extractables eliminated
 ! LogVerbosity         = Terse
 ! Initial process time : 0.57s (0.56s extraction + 0.01s propagation)
 !  . Log search space  : 258.0 (before), 258.0 (after)
 !  . Memory usage      : 11.2 MB (before), 11.2 MB (after)
 ! Using parallel search with 12 workers.
 ! ----------------------------------------------------------------------------
 !          Best Branches  Non-fixed    W       Branch decision
                        0        258                 -
 + New bound is 46
 *            46      184  0.80s        1      (gap is 0.00%)
 ! ----------------------------------------------------------------------------
 ! Search completed, 1 solution found.
 ! Best objective         : 46 (optimal - effective tol. is 0)
 ! Best bound             : 46
 ! ----------------------------------------------------------------------------
 ! Number of branches     : 2351
 ! Number of fails        : 1080
 ! Total memory usage     : 254.5 MB (253.7 MB CP Optimizer + 0.8 MB Concert)
 ! Time spent in solve    : 0.81s (0.25s engine + 0.56s extraction)
 ! Search speed (br. / s) : 9404.0
 ! ----------------------------------------------------------------------------

FINAL SOLUTION:
{708, 470, 778, 540, 16, 254, 16, 254, 30, 268, 86, 324, 680, 442, 16, 254, 240, 478, 114, 352, 156, 394, 708, 470, 16, 254, 16, 254, 722, 484, 764, 526, 792, 554, 16, 254, 680, 442, 722, 484, 16, 254, 652, 414, 666, 428, 16, 254, 114, 352, 736, 498, 240, 478, 708, 470, 652, 414, 694, 456, 16, 254, 170, 408, 750, 512, 792, 554, 86, 324, 44, 282, 652, 414, 128, 366, 652, 414, 680, 442, 792, 554, 792, 554, 128, 366, 16, 254, 128, 366, 764, 526, 792, 554, 750, 512, 142, 380, 722, 484, 114, 352, 16, 254, 156, 394, 764, 526, 30, 268, 792, 554, 708, 470, 652, 414, 778, 540, 170, 408, 16, 254, 708, 470, 792, 554, 16, 254, 792, 554, 44, 282, 792, 554, 16, 254, 156, 394, 30, 268, 156, 394, 778, 540, 86, 324, 750, 512, 652, 414, 666, 428, 30, 268, 792, 554, 680, 442, 792, 554, 142, 380, 16, 254, 86, 324, 792, 554, 16, 254, 666, 428, 666, 428, 792, 554, 722, 484, 652, 414, 58, 296, 792, 554, 792, 554, 86, 324, 72, 310, 142, 380, 792, 554, 680, 442, 16, 254, 792, 554}
Number of labels used: 46
[runlim] end:			Sun Jan 25 08:10:37 2026
[runlim] status:		ok
[runlim] result:		0
[runlim] children:		25
[runlim] real:			3.91 seconds
[runlim] time:			5.46 seconds
[runlim] space:			650.7 MB
[runlim] samples:		37
